f:0
solution:
21 42 79 96 77 0 19 73 43 48 75 78 51 29 16 90 4 34 6 72 52 17 38 94 3 33 60 56 57 74 10 53 80 20 89 26 99 59 15 1 23 37 5 14 55 18 86 81 54 88 91 64 40 67 31 93 39 76 61 28 2 30 92 32 70 25 68 41 65 27 87 63 35 83 24 95 97 13 36 49 7 12 98 11 82 47 46 58 45 69 71 8 85 66 50 62 84 9 22 44 